(set-logic ALL)
(declare-const x String)
(declare-const y String)
(assert (str.in_re x (str.to_re "123")))
(assert (= 11 (str.len x)))
(assert (not (= x "G&iQ123G&iQ")))
(assert (not (= x "G&iQG&iQ123")))
(check-sat)
